unsat
((set-logic NIA)
(declare-fun r!2 () Int)
(declare-fun q!3 () Int)
(declare-fun d!1 () Int)
(declare-fun x!0 () Int)
(proof
(let ((?x41 (* d00 d00 q00)))
 (let ((?x32 (* 8 r00)))
 (let ((?x1310 (+ ?x32 ?x41 (* 4 (* d00 x00)) (* (- 2) (* d00 q00)) (* (- 4) (* r00 d00)) (* 4 (* d!1 r!2)) (* (- 4) (* x!0 d!1)) (* 2 (* d!1 q!3)) (* (- 1) (* d!1 d!1 q!3)) (* (- 8) r!2))))
 (let (($x1273 (>= ?x1310 0)))
 (let (($x1099 (= ?x1310 0)))
 (let ((?x811 (* 8 r!2)))
 (let ((?x1300 (* d!1 d!1 q!3)))
 (let ((?x627 (* x!0 d!1)))
 (let ((?x825 (* 4 ?x627)))
 (let ((?x281 (* r00 d00)))
 (let ((?x282 (* 4 ?x281)))
 (let ((?x243 (* d00 q00)))
 (let ((?x244 (* 2 ?x243)))
 (let ((?x164 (* d00 x00)))
 (let ((?x178 (* (- 4) ?x164)))
 (let ((?x194 (* (- 1) ?x41)))
 (let ((?x146 (* (- 8) r00)))
 (let ((?x1307 (+ ?x146 ?x194 ?x178 ?x244 ?x282 (* (- 4) (* d!1 r!2)) ?x825 (* (- 2) (* d!1 q!3)) ?x1300 ?x811)))
 (let ((?x1167 (* 2 r!2)))
 (let ((?x161 (* (- 1) x!0)))
 (let ((?x815 (+ 2 ?x161 d!1 q!3 ?x1167)))
 (let ((?x890 (+ 4 q!3)))
 (let ((?x628 (+ 2 d!1)))
 (let ((?x1109 (* ?x628 ?x628 ?x628 ?x628 ?x628 ?x628 ?x890 ?x890 ?x890 ?x890 ?x890 ?x815 ?x815 ?x815 ?x815 ?x815 ?x815 ?x815 ?x1307 r!2 r!2 r!2 r!2 r!2 r!2)))
 (let (($x1096 (= ?x1109 0)))
 (let (($x1114 (not $x1096)))
 (let ((?x460 (+ ?x161 q!3 ?x1167)))
 (let ((?x547 (* ?x628 ?x628 ?x628 ?x628 ?x628 ?x628 ?x460 ?x460 ?x460 ?x460 ?x460 ?x460 ?x460 ?x1307 r!2 r!2 r!2 r!2 r!2 r!2 q!3 q!3 q!3 q!3 q!3)))
 (let (($x604 (= ?x547 0)))
 (let ((?x886 (* (- 2) d!1)))
 (let ((?x524 (+ (- 4) ?x161 ?x886 q!3 ?x1167)))
 (let ((?x1299 (+ (- 8) q!3)))
 (let ((?x559 (* ?x1299 ?x1299 ?x1299 ?x1299 ?x1299 ?x628 ?x628 ?x628 ?x628 ?x628 ?x628 ?x524 ?x524 ?x524 ?x524 ?x524 ?x524 ?x524 ?x1307 r!2 r!2 r!2 r!2 r!2 r!2)))
 (let (($x557 (= ?x559 0)))
 (let ((?x883 (* (- 1) d!1)))
 (let ((?x558 (+ (- 2) ?x161 ?x883 q!3 ?x1167)))
 (let ((?x990 (+ (- 4) q!3)))
 (let ((?x563 (* ?x990 ?x990 ?x990 ?x990 ?x990 ?x628 ?x628 ?x628 ?x628 ?x628 ?x628 ?x558 ?x558 ?x558 ?x558 ?x558 ?x558 ?x558 ?x1307 r!2 r!2 r!2 r!2 r!2 r!2)))
 (let (($x542 (= ?x563 0)))
 (let (($x549 (not $x542)))
 (let (($x506 (or $x549 (not $x557) (not $x604) $x1114)))
 (let (($x746 (and $x1099 $x506)))
 (let ((?x218 (+ ?x811 ?x146 ?x194 ?x178 ?x244 ?x282 (* (- 2) (* q!3 d!1)) (* q!3 d!1 d!1) ?x825 (* (- 4) (* r!2 d!1)))))
 (let ((?x512 (+ q!3 ?x1167 ?x161)))
 (let ((?x1302 (* ?x628 ?x628 ?x628 ?x628 ?x628 ?x628 ?x512 ?x512 ?x512 ?x512 ?x512 ?x512 ?x512 ?x218 r!2 r!2 r!2 r!2 r!2 r!2 q!3 q!3 q!3 q!3 q!3)))
 (let ((?x1284 (+ (- 4) q!3 ?x1167 ?x161 ?x886)))
 (let ((?x668 (* ?x1299 ?x1299 ?x1299 ?x1299 ?x1299 ?x628 ?x628 ?x628 ?x628 ?x628 ?x628 ?x1284 ?x1284 ?x1284 ?x1284 ?x1284 ?x1284 ?x1284 ?x218 r!2 r!2 r!2 r!2 r!2 r!2)))
 (let ((?x882 (+ (- 2) q!3 ?x1167 ?x161 ?x883)))
 (let ((?x369 (* ?x990 ?x990 ?x990 ?x990 ?x990 ?x628 ?x628 ?x628 ?x628 ?x628 ?x628 ?x882 ?x882 ?x882 ?x882 ?x882 ?x882 ?x882 ?x218 r!2 r!2 r!2 r!2 r!2 r!2)))
 (let ((?x186 (+ 2 q!3 ?x1167 ?x161 d!1)))
 (let ((?x791 (* ?x628 ?x628 ?x628 ?x628 ?x628 ?x628 ?x890 ?x890 ?x890 ?x890 ?x890 ?x186 ?x186 ?x186 ?x186 ?x186 ?x186 ?x186 ?x218 r!2 r!2 r!2 r!2 r!2 r!2)))
 (let (($x629 (or (not (= ?x791 0)) (not (= ?x369 0)) (not (= ?x668 0)) (not (= ?x1302 0)))))
 (let (($x1297 (and (= ?x218 0) $x629)))
 (let (($x147 (exists ((q Int) (r Int) (d Int) (x Int) )(! (let ((?x948 (* r d)))
 (let ((?x947 (* (- 4) ?x948)))
 (let ((?x462 (* 4 (* x d))))
 (let ((?x761 (* q d d)))
 (let ((?x949 (* (- 2) (* q d))))
 (let ((?x281 (* r00 d00)))
 (let ((?x282 (* 4 ?x281)))
 (let ((?x243 (* d00 q00)))
 (let ((?x244 (* 2 ?x243)))
 (let ((?x164 (* d00 x00)))
 (let ((?x178 (* (- 4) ?x164)))
 (let ((?x41 (* d00 d00 q00)))
 (let ((?x194 (* (- 1) ?x41)))
 (let ((?x146 (* (- 8) r00)))
 (let ((?x175 (* 8 r)))
 (let ((?x595 (+ ?x175 ?x146 ?x194 ?x178 ?x244 ?x282 ?x949 ?x761 ?x462 ?x947)))
 (let ((?x143 (* (- 1) x)))
 (let ((?x117 (* 2 r)))
 (let ((?x862 (+ q ?x117 ?x143)))
 (let ((?x897 (+ 2 d)))
 (let ((?x1349 (* ?x897 ?x897 ?x897 ?x897 ?x897 ?x897 ?x862 ?x862 ?x862 ?x862 ?x862 ?x862 ?x862 ?x595 r r r r r r q q q q q)))
 (let (($x1351 (not (= ?x1349 0))))
 (let ((?x693 (* (- 2) d)))
 (let ((?x403 (+ (- 4) q ?x117 ?x143 ?x693)))
 (let ((?x692 (+ (- 8) q)))
 (let ((?x1103 (* ?x692 ?x692 ?x692 ?x692 ?x692 ?x897 ?x897 ?x897 ?x897 ?x897 ?x897 ?x403 ?x403 ?x403 ?x403 ?x403 ?x403 ?x403 ?x595 r r r r r r)))
 (let ((?x648 (* (- 1) d)))
 (let ((?x638 (+ (- 2) q ?x117 ?x143 ?x648)))
 (let ((?x625 (+ (- 4) q)))
 (let ((?x494 (* ?x625 ?x625 ?x625 ?x625 ?x625 ?x897 ?x897 ?x897 ?x897 ?x897 ?x897 ?x638 ?x638 ?x638 ?x638 ?x638 ?x638 ?x638 ?x595 r r r r r r)))
 (let ((?x979 (+ 2 q ?x117 ?x143 d)))
 (let ((?x896 (+ 4 q)))
 (let ((?x148 (* ?x897 ?x897 ?x897 ?x897 ?x897 ?x897 ?x896 ?x896 ?x896 ?x896 ?x896 ?x979 ?x979 ?x979 ?x979 ?x979 ?x979 ?x979 ?x595 r r r r r r)))
 (let (($x1295 (or (not (= ?x148 0)) (not (= ?x494 0)) (not (= ?x1103 0)) $x1351)))
 (let (($x904 (= ?x595 0)))
 (and $x904 $x1295)))))))))))))))))))))))))))))))))))) :qid k!32))
 ))
 (let (($x642 (exists ((q Int) (r Int) (d Int) (x Int) )(! (let ((?x948 (* r d)))
 (let ((?x947 (* (- 4) ?x948)))
 (let ((?x462 (* 4 (* x d))))
 (let ((?x761 (* q d d)))
 (let ((?x949 (* (- 2) (* q d))))
 (let ((?x281 (* r00 d00)))
 (let ((?x282 (* 4 ?x281)))
 (let ((?x243 (* d00 q00)))
 (let ((?x244 (* 2 ?x243)))
 (let ((?x164 (* d00 x00)))
 (let ((?x178 (* (- 4) ?x164)))
 (let ((?x41 (* d00 d00 q00)))
 (let ((?x194 (* (- 1) ?x41)))
 (let ((?x146 (* (- 8) r00)))
 (let ((?x175 (* 8 r)))
 (let ((?x595 (+ ?x175 ?x146 ?x194 ?x178 ?x244 ?x282 ?x949 ?x761 ?x462 ?x947)))
 (let ((?x143 (* (- 1) x)))
 (let ((?x117 (* 2 r)))
 (let ((?x862 (+ q ?x117 ?x143)))
 (let ((?x897 (+ 2 d)))
 (let ((?x1349 (* ?x897 ?x897 ?x897 ?x897 ?x897 ?x897 ?x862 ?x862 ?x862 ?x862 ?x862 ?x862 ?x862 ?x595 r r r r r r q q q q q)))
 (let (($x1351 (not (= ?x1349 0))))
 (let ((?x611 (* 8 d)))
 (let ((?x441 (+ ?x175 ?x146 ?x194 ?x178 ?x244 ?x282 (* (- 4) (* d 2)) ?x949 ?x761 ?x462 ?x947 ?x611)))
 (let ((?x648 (* (- 1) d)))
 (let ((?x638 (+ (- 2) q ?x117 ?x143 ?x648)))
 (let ((?x625 (+ (- 4) q)))
 (let ((?x634 (* ?x625 ?x625 ?x625 ?x625 ?x625 ?x897 ?x897 ?x897 ?x897 ?x897 ?x897 ?x638 ?x638 ?x638 ?x638 ?x638 ?x638 ?x638 ?x441 r r r r r r)))
 (let ((?x928 (* (- 8) d)))
 (let ((?x918 (* 2 (* d 4))))
 (let ((?x979 (+ 2 q ?x117 ?x143 d)))
 (let ((?x896 (+ 4 q)))
 (let ((?x450 (* ?x897 ?x897 ?x897 ?x897 ?x897 ?x897 ?x896 ?x896 ?x896 ?x896 ?x896 ?x979 ?x979 ?x979 ?x979 ?x979 ?x979 ?x979 (+ ?x175 ?x146 ?x194 ?x178 ?x244 ?x282 ?x949 ?x761 ?x462 ?x918 ?x947 ?x928) r r r r r r)))
 (let ((?x684 (* 16 d)))
 (let ((?x330 (+ ?x175 ?x146 ?x194 ?x178 ?x244 ?x282 (* (- 8) (* d 2)) ?x949 ?x761 ?x462 ?x947 ?x684)))
 (let ((?x693 (* (- 2) d)))
 (let ((?x403 (+ (- 4) q ?x117 ?x143 ?x693)))
 (let ((?x692 (+ (- 8) q)))
 (let ((?x253 (* ?x692 ?x692 ?x692 ?x692 ?x692 ?x897 ?x897 ?x897 ?x897 ?x897 ?x897 ?x403 ?x403 ?x403 ?x403 ?x403 ?x403 ?x403 ?x330 r r r r r r)))
 (let (($x1334 (or (not (= ?x253 0)) (not (= ?x450 0)) (not (= ?x634 0)) $x1351)))
 (let (($x904 (= ?x595 0)))
 (and $x904 $x1334)))))))))))))))))))))))))))))))))))))))))) :qid k!32))
 ))
 (let ((?x944 (lambda ((q Int) (r Int) (d Int) (x Int) )(let ((?x948 (* r d)))
 (let ((?x947 (* (- 4) ?x948)))
 (let ((?x462 (* 4 (* x d))))
 (let ((?x761 (* q d d)))
 (let ((?x949 (* (- 2) (* q d))))
 (let ((?x281 (* r00 d00)))
 (let ((?x282 (* 4 ?x281)))
 (let ((?x243 (* d00 q00)))
 (let ((?x244 (* 2 ?x243)))
 (let ((?x164 (* d00 x00)))
 (let ((?x178 (* (- 4) ?x164)))
 (let ((?x41 (* d00 d00 q00)))
 (let ((?x194 (* (- 1) ?x41)))
 (let ((?x146 (* (- 8) r00)))
 (let ((?x175 (* 8 r)))
 (let ((?x595 (+ ?x175 ?x146 ?x194 ?x178 ?x244 ?x282 ?x949 ?x761 ?x462 ?x947)))
 (let ((?x143 (* (- 1) x)))
 (let ((?x117 (* 2 r)))
 (let ((?x862 (+ q ?x117 ?x143)))
 (let ((?x897 (+ 2 d)))
 (let ((?x1349 (* ?x897 ?x897 ?x897 ?x897 ?x897 ?x897 ?x862 ?x862 ?x862 ?x862 ?x862 ?x862 ?x862 ?x595 r r r r r r q q q q q)))
 (let (($x1351 (not (= ?x1349 0))))
 (let ((?x693 (* (- 2) d)))
 (let ((?x403 (+ (- 4) q ?x117 ?x143 ?x693)))
 (let ((?x692 (+ (- 8) q)))
 (let ((?x1103 (* ?x692 ?x692 ?x692 ?x692 ?x692 ?x897 ?x897 ?x897 ?x897 ?x897 ?x897 ?x403 ?x403 ?x403 ?x403 ?x403 ?x403 ?x403 ?x595 r r r r r r)))
 (let ((?x648 (* (- 1) d)))
 (let ((?x638 (+ (- 2) q ?x117 ?x143 ?x648)))
 (let ((?x625 (+ (- 4) q)))
 (let ((?x494 (* ?x625 ?x625 ?x625 ?x625 ?x625 ?x897 ?x897 ?x897 ?x897 ?x897 ?x897 ?x638 ?x638 ?x638 ?x638 ?x638 ?x638 ?x638 ?x595 r r r r r r)))
 (let ((?x979 (+ 2 q ?x117 ?x143 d)))
 (let ((?x896 (+ 4 q)))
 (let ((?x148 (* ?x897 ?x897 ?x897 ?x897 ?x897 ?x897 ?x896 ?x896 ?x896 ?x896 ?x896 ?x979 ?x979 ?x979 ?x979 ?x979 ?x979 ?x979 ?x595 r r r r r r)))
 (let (($x1295 (or (not (= ?x148 0)) (not (= ?x494 0)) (not (= ?x1103 0)) $x1351)))
 (let (($x904 (= ?x595 0)))
 (let (($x673 (and $x904 $x1295)))
 (let ((?x611 (* 8 d)))
 (let ((?x441 (+ ?x175 ?x146 ?x194 ?x178 ?x244 ?x282 (* (- 4) (* d 2)) ?x949 ?x761 ?x462 ?x947 ?x611)))
 (let ((?x634 (* ?x625 ?x625 ?x625 ?x625 ?x625 ?x897 ?x897 ?x897 ?x897 ?x897 ?x897 ?x638 ?x638 ?x638 ?x638 ?x638 ?x638 ?x638 ?x441 r r r r r r)))
 (let ((?x928 (* (- 8) d)))
 (let ((?x918 (* 2 (* d 4))))
 (let ((?x450 (* ?x897 ?x897 ?x897 ?x897 ?x897 ?x897 ?x896 ?x896 ?x896 ?x896 ?x896 ?x979 ?x979 ?x979 ?x979 ?x979 ?x979 ?x979 (+ ?x175 ?x146 ?x194 ?x178 ?x244 ?x282 ?x949 ?x761 ?x462 ?x918 ?x947 ?x928) r r r r r r)))
 (let ((?x684 (* 16 d)))
 (let ((?x330 (+ ?x175 ?x146 ?x194 ?x178 ?x244 ?x282 (* (- 8) (* d 2)) ?x949 ?x761 ?x462 ?x947 ?x684)))
 (let ((?x253 (* ?x692 ?x692 ?x692 ?x692 ?x692 ?x897 ?x897 ?x897 ?x897 ?x897 ?x897 ?x403 ?x403 ?x403 ?x403 ?x403 ?x403 ?x403 ?x330 r r r r r r)))
 (let (($x1334 (or (not (= ?x253 0)) (not (= ?x450 0)) (not (= ?x634 0)) $x1351)))
 (let (($x1269 (and $x904 $x1334)))
 (rewrite (= $x1269 $x673))))))))))))))))))))))))))))))))))))))))))))))))))
 ))
 (let (($x569 (exists ((q Int) (r Int) (d Int) (x Int) )(! (let ((?x968 (* 4 (* d00 r00))))
 (let ((?x143 (* (- 1) x)))
 (let ((?x117 (* 2 r)))
 (let ((?x956 (+ 2 ?x117 ?x143 q d)))
 (let ((?x897 (+ 2 d)))
 (let ((?x243 (* d00 q00)))
 (let ((?x244 (* 2 ?x243)))
 (let ((?x41 (* d00 d00 q00)))
 (let ((?x194 (* (- 1) ?x41)))
 (let ((?x164 (* d00 x00)))
 (let ((?x178 (* (- 4) ?x164)))
 (let ((?x217 (* 4 (* ?x897 r))))
 (let ((?x146 (* (- 8) r00)))
 (let ((?x611 (* 8 d)))
 (let ((?x30 (* 8 q)))
 (let ((?x531 (* (- 8) x)))
 (let ((?x391 (* 16 r)))
 (let ((?x941 (+ 16 ?x391 ?x531 ?x30 ?x611 ?x146 ?x217 ?x178 ?x194 (* ?x897 ?x897 (+ 4 q)) (* (- 2) (* ?x897 (+ 4 q))) ?x244 (* (- 4) (* ?x897 ?x956)) ?x968)))
 (let ((?x896 (+ 4 q)))
 (let ((?x939 (* ?x897 ?x897 ?x897 ?x897 ?x897 ?x897 ?x896 ?x896 ?x896 ?x896 ?x896 ?x956 ?x956 ?x956 ?x956 ?x956 ?x956 ?x956 ?x941 r r r r r r)))
 (let (($x936 (not (= ?x939 0))))
 (let ((?x891 (+ ?x391 ?x531 ?x30 ?x146 ?x217 ?x178 ?x194 (* ?x897 ?x897 q) (* (- 2) (* ?x897 q)) ?x244 (* (- 4) (* ?x897 (+ ?x117 ?x143 q))) ?x968)))
 (let ((?x273 (+ ?x117 ?x143 q)))
 (let ((?x869 (* ?x897 ?x897 ?x897 ?x897 ?x897 ?x897 ?x273 ?x273 ?x273 ?x273 ?x273 ?x273 ?x273 ?x891 r r r r r r q q q q q)))
 (let (($x867 (not (= ?x869 0))))
 (let ((?x379 (+ (- 32) ?x391 ?x531 ?x30 (* (- 16) d) ?x146 ?x217 ?x178 ?x194 (* (+ (- 8) q) ?x897 ?x897) (* (- 2) (* (+ (- 8) q) ?x897)) ?x244 (* (- 4) (* ?x897 (+ (- 4) ?x117 ?x143 q (* (- 2) d)))) ?x968)))
 (let ((?x693 (* (- 2) d)))
 (let ((?x935 (+ (- 4) ?x117 ?x143 q ?x693)))
 (let ((?x692 (+ (- 8) q)))
 (let ((?x381 (* ?x692 ?x692 ?x692 ?x692 ?x692 ?x897 ?x897 ?x897 ?x897 ?x897 ?x897 ?x935 ?x935 ?x935 ?x935 ?x935 ?x935 ?x935 ?x379 r r r r r r)))
 (let (($x652 (not (= ?x381 0))))
 (let ((?x928 (* (- 8) d)))
 (let ((?x300 (+ (- 16) ?x391 ?x531 ?x30 ?x928 ?x146 ?x217 ?x178 ?x194 (* (+ (- 4) q) ?x897 ?x897) (* (- 2) (* (+ (- 4) q) ?x897)) ?x244 (* (- 4) (* ?x897 (+ (- 2) ?x117 ?x143 q (* (- 1) d)))) ?x968)))
 (let ((?x648 (* (- 1) d)))
 (let ((?x653 (+ (- 2) ?x117 ?x143 q ?x648)))
 (let ((?x625 (+ (- 4) q)))
 (let ((?x641 (* ?x625 ?x625 ?x625 ?x625 ?x625 ?x897 ?x897 ?x897 ?x897 ?x897 ?x897 ?x653 ?x653 ?x653 ?x653 ?x653 ?x653 ?x653 ?x300 r r r r r r)))
 (let (($x397 (not (= ?x641 0))))
 (let ((?x462 (* 4 (* x d))))
 (let ((?x175 (* 8 r)))
 (let ((?x271 (+ ?x175 ?x146 ?x462 ?x178 ?x194 (* d d q) (* (- 2) (* d q)) ?x244 (* (- 4) (* d r)) ?x968)))
 (let (($x272 (= ?x271 0)))
 (and $x272 (or $x397 $x652 $x867 $x936)))))))))))))))))))))))))))))))))))))))))))) :qid k!32))
 ))
 (let ((?x1331 (lambda ((q Int) (r Int) (d Int) (x Int) )(let ((?x948 (* r d)))
 (let ((?x947 (* (- 4) ?x948)))
 (let ((?x462 (* 4 (* x d))))
 (let ((?x761 (* q d d)))
 (let ((?x949 (* (- 2) (* q d))))
 (let ((?x281 (* r00 d00)))
 (let ((?x282 (* 4 ?x281)))
 (let ((?x243 (* d00 q00)))
 (let ((?x244 (* 2 ?x243)))
 (let ((?x164 (* d00 x00)))
 (let ((?x178 (* (- 4) ?x164)))
 (let ((?x41 (* d00 d00 q00)))
 (let ((?x194 (* (- 1) ?x41)))
 (let ((?x146 (* (- 8) r00)))
 (let ((?x175 (* 8 r)))
 (let ((?x595 (+ ?x175 ?x146 ?x194 ?x178 ?x244 ?x282 ?x949 ?x761 ?x462 ?x947)))
 (let ((?x143 (* (- 1) x)))
 (let ((?x117 (* 2 r)))
 (let ((?x862 (+ q ?x117 ?x143)))
 (let ((?x897 (+ 2 d)))
 (let ((?x1349 (* ?x897 ?x897 ?x897 ?x897 ?x897 ?x897 ?x862 ?x862 ?x862 ?x862 ?x862 ?x862 ?x862 ?x595 r r r r r r q q q q q)))
 (let (($x1351 (not (= ?x1349 0))))
 (let ((?x611 (* 8 d)))
 (let ((?x441 (+ ?x175 ?x146 ?x194 ?x178 ?x244 ?x282 (* (- 4) (* d 2)) ?x949 ?x761 ?x462 ?x947 ?x611)))
 (let ((?x648 (* (- 1) d)))
 (let ((?x638 (+ (- 2) q ?x117 ?x143 ?x648)))
 (let ((?x625 (+ (- 4) q)))
 (let ((?x634 (* ?x625 ?x625 ?x625 ?x625 ?x625 ?x897 ?x897 ?x897 ?x897 ?x897 ?x897 ?x638 ?x638 ?x638 ?x638 ?x638 ?x638 ?x638 ?x441 r r r r r r)))
 (let ((?x928 (* (- 8) d)))
 (let ((?x918 (* 2 (* d 4))))
 (let ((?x979 (+ 2 q ?x117 ?x143 d)))
 (let ((?x896 (+ 4 q)))
 (let ((?x450 (* ?x897 ?x897 ?x897 ?x897 ?x897 ?x897 ?x896 ?x896 ?x896 ?x896 ?x896 ?x979 ?x979 ?x979 ?x979 ?x979 ?x979 ?x979 (+ ?x175 ?x146 ?x194 ?x178 ?x244 ?x282 ?x949 ?x761 ?x462 ?x918 ?x947 ?x928) r r r r r r)))
 (let ((?x684 (* 16 d)))
 (let ((?x330 (+ ?x175 ?x146 ?x194 ?x178 ?x244 ?x282 (* (- 8) (* d 2)) ?x949 ?x761 ?x462 ?x947 ?x684)))
 (let ((?x693 (* (- 2) d)))
 (let ((?x403 (+ (- 4) q ?x117 ?x143 ?x693)))
 (let ((?x692 (+ (- 8) q)))
 (let ((?x253 (* ?x692 ?x692 ?x692 ?x692 ?x692 ?x897 ?x897 ?x897 ?x897 ?x897 ?x897 ?x403 ?x403 ?x403 ?x403 ?x403 ?x403 ?x403 ?x330 r r r r r r)))
 (let (($x1334 (or (not (= ?x253 0)) (not (= ?x450 0)) (not (= ?x634 0)) $x1351)))
 (let (($x904 (= ?x595 0)))
 (let (($x1269 (and $x904 $x1334)))
 (let ((?x968 (* 4 (* d00 r00))))
 (let ((?x217 (* 4 (* ?x897 r))))
 (let ((?x30 (* 8 q)))
 (let ((?x531 (* (- 8) x)))
 (let ((?x391 (* 16 r)))
 (let ((?x941 (+ 16 ?x391 ?x531 ?x30 ?x611 ?x146 ?x217 ?x178 ?x194 (* ?x897 ?x897 ?x896) (* (- 2) (* ?x897 ?x896)) ?x244 (* (- 4) (* ?x897 (+ 2 ?x117 ?x143 q d))) ?x968)))
 (let ((?x956 (+ 2 ?x117 ?x143 q d)))
 (let ((?x939 (* ?x897 ?x897 ?x897 ?x897 ?x897 ?x897 ?x896 ?x896 ?x896 ?x896 ?x896 ?x956 ?x956 ?x956 ?x956 ?x956 ?x956 ?x956 ?x941 r r r r r r)))
 (let (($x936 (not (= ?x939 0))))
 (let ((?x891 (+ ?x391 ?x531 ?x30 ?x146 ?x217 ?x178 ?x194 (* ?x897 ?x897 q) (* (- 2) (* ?x897 q)) ?x244 (* (- 4) (* ?x897 (+ ?x117 ?x143 q))) ?x968)))
 (let ((?x273 (+ ?x117 ?x143 q)))
 (let ((?x869 (* ?x897 ?x897 ?x897 ?x897 ?x897 ?x897 ?x273 ?x273 ?x273 ?x273 ?x273 ?x273 ?x273 ?x891 r r r r r r q q q q q)))
 (let (($x867 (not (= ?x869 0))))
 (let ((?x379 (+ (- 32) ?x391 ?x531 ?x30 (* (- 16) d) ?x146 ?x217 ?x178 ?x194 (* ?x692 ?x897 ?x897) (* (- 2) (* ?x692 ?x897)) ?x244 (* (- 4) (* ?x897 (+ (- 4) ?x117 ?x143 q ?x693))) ?x968)))
 (let ((?x935 (+ (- 4) ?x117 ?x143 q ?x693)))
 (let ((?x381 (* ?x692 ?x692 ?x692 ?x692 ?x692 ?x897 ?x897 ?x897 ?x897 ?x897 ?x897 ?x935 ?x935 ?x935 ?x935 ?x935 ?x935 ?x935 ?x379 r r r r r r)))
 (let (($x652 (not (= ?x381 0))))
 (let ((?x300 (+ (- 16) ?x391 ?x531 ?x30 ?x928 ?x146 ?x217 ?x178 ?x194 (* ?x625 ?x897 ?x897) (* (- 2) (* ?x625 ?x897)) ?x244 (* (- 4) (* ?x897 (+ (- 2) ?x117 ?x143 q ?x648))) ?x968)))
 (let ((?x653 (+ (- 2) ?x117 ?x143 q ?x648)))
 (let ((?x641 (* ?x625 ?x625 ?x625 ?x625 ?x625 ?x897 ?x897 ?x897 ?x897 ?x897 ?x897 ?x653 ?x653 ?x653 ?x653 ?x653 ?x653 ?x653 ?x300 r r r r r r)))
 (let (($x397 (not (= ?x641 0))))
 (let ((?x271 (+ ?x175 ?x146 ?x462 ?x178 ?x194 (* d d q) (* (- 2) (* d q)) ?x244 (* (- 4) (* d r)) ?x968)))
 (let (($x272 (= ?x271 0)))
 (let (($x1073 (and $x272 (or $x397 $x652 $x867 $x936))))
 (rewrite (= $x1073 $x1269)))))))))))))))))))))))))))))))))))))))))))))))))))))))))))))))))))))
 ))
 (let (($x402 (exists ((q Int) (r Int) (d Int) (x Int) )(! (let ((?x968 (* 4 (* d00 r00))))
 (let ((?x648 (* (- 1) d)))
 (let ((?x143 (* (- 1) x)))
 (let ((?x117 (* 2 r)))
 (let ((?x653 (+ (- 2) ?x117 ?x143 q ?x648)))
 (let ((?x897 (+ 2 d)))
 (let ((?x243 (* d00 q00)))
 (let ((?x244 (* 2 ?x243)))
 (let ((?x41 (* d00 d00 q00)))
 (let ((?x194 (* (- 1) ?x41)))
 (let ((?x164 (* d00 x00)))
 (let ((?x178 (* (- 4) ?x164)))
 (let ((?x217 (* 4 (* ?x897 r))))
 (let ((?x146 (* (- 8) r00)))
 (let ((?x928 (* (- 8) d)))
 (let ((?x30 (* 8 q)))
 (let ((?x531 (* (- 8) x)))
 (let ((?x391 (* 16 r)))
 (let ((?x300 (+ (- 16) ?x391 ?x531 ?x30 ?x928 ?x146 ?x217 ?x178 ?x194 (* (+ (- 4) q) ?x897 ?x897) (* (- 2) (* (+ (- 4) q) ?x897)) ?x244 (* (- 4) (* ?x897 ?x653)) ?x968)))
 (let ((?x625 (+ (- 4) q)))
 (let ((?x641 (* ?x625 ?x625 ?x625 ?x625 ?x625 ?x897 ?x897 ?x897 ?x897 ?x897 ?x897 ?x653 ?x653 ?x653 ?x653 ?x653 ?x653 ?x653 ?x300 r r r r r r)))
 (let (($x397 (not (= ?x641 0))))
 (let ((?x379 (+ (- 32) ?x391 ?x531 ?x30 (* (- 16) d) ?x146 ?x217 ?x178 ?x194 (* (+ (- 8) q) ?x897 ?x897) (* (- 2) (* (+ (- 8) q) ?x897)) ?x244 (* (- 4) (* ?x897 (+ (- 4) ?x117 ?x143 q (* (- 2) d)))) ?x968)))
 (let ((?x693 (* (- 2) d)))
 (let ((?x935 (+ (- 4) ?x117 ?x143 q ?x693)))
 (let ((?x692 (+ (- 8) q)))
 (let ((?x381 (* ?x692 ?x692 ?x692 ?x692 ?x692 ?x897 ?x897 ?x897 ?x897 ?x897 ?x897 ?x935 ?x935 ?x935 ?x935 ?x935 ?x935 ?x935 ?x379 r r r r r r)))
 (let (($x652 (not (= ?x381 0))))
 (let ((?x611 (* 8 d)))
 (let ((?x941 (+ 16 ?x391 ?x531 ?x30 ?x611 ?x146 ?x217 ?x178 ?x194 (* ?x897 ?x897 (+ 4 q)) (* (- 2) (* ?x897 (+ 4 q))) ?x244 (* (- 4) (* ?x897 (+ 2 ?x117 ?x143 q d))) ?x968)))
 (let ((?x956 (+ 2 ?x117 ?x143 q d)))
 (let ((?x896 (+ 4 q)))
 (let ((?x939 (* ?x897 ?x897 ?x897 ?x897 ?x897 ?x897 ?x896 ?x896 ?x896 ?x896 ?x896 ?x956 ?x956 ?x956 ?x956 ?x956 ?x956 ?x956 ?x941 r r r r r r)))
 (let (($x936 (not (= ?x939 0))))
 (let ((?x891 (+ ?x391 ?x531 ?x30 ?x146 ?x217 ?x178 ?x194 (* ?x897 ?x897 q) (* (- 2) (* ?x897 q)) ?x244 (* (- 4) (* ?x897 (+ ?x117 ?x143 q))) ?x968)))
 (let ((?x273 (+ ?x117 ?x143 q)))
 (let ((?x869 (* ?x897 ?x897 ?x897 ?x897 ?x897 ?x897 ?x273 ?x273 ?x273 ?x273 ?x273 ?x273 ?x273 ?x891 r r r r r r q q q q q)))
 (let (($x867 (not (= ?x869 0))))
 (let ((?x462 (* 4 (* x d))))
 (let ((?x175 (* 8 r)))
 (let ((?x271 (+ ?x175 ?x146 ?x462 ?x178 ?x194 (* d d q) (* (- 2) (* d q)) ?x244 (* (- 4) (* d r)) ?x968)))
 (let (($x272 (= ?x271 0)))
 (and $x272 (or $x867 $x936 $x652 $x397)))))))))))))))))))))))))))))))))))))))))))) :qid k!32))
 ))
 (let ((?x1074 (lambda ((q Int) (r Int) (d Int) (x Int) )(let ((?x968 (* 4 (* d00 r00))))
 (let ((?x143 (* (- 1) x)))
 (let ((?x117 (* 2 r)))
 (let ((?x956 (+ 2 ?x117 ?x143 q d)))
 (let ((?x897 (+ 2 d)))
 (let ((?x243 (* d00 q00)))
 (let ((?x244 (* 2 ?x243)))
 (let ((?x41 (* d00 d00 q00)))
 (let ((?x194 (* (- 1) ?x41)))
 (let ((?x164 (* d00 x00)))
 (let ((?x178 (* (- 4) ?x164)))
 (let ((?x217 (* 4 (* ?x897 r))))
 (let ((?x146 (* (- 8) r00)))
 (let ((?x611 (* 8 d)))
 (let ((?x30 (* 8 q)))
 (let ((?x531 (* (- 8) x)))
 (let ((?x391 (* 16 r)))
 (let ((?x941 (+ 16 ?x391 ?x531 ?x30 ?x611 ?x146 ?x217 ?x178 ?x194 (* ?x897 ?x897 (+ 4 q)) (* (- 2) (* ?x897 (+ 4 q))) ?x244 (* (- 4) (* ?x897 ?x956)) ?x968)))
 (let ((?x896 (+ 4 q)))
 (let ((?x939 (* ?x897 ?x897 ?x897 ?x897 ?x897 ?x897 ?x896 ?x896 ?x896 ?x896 ?x896 ?x956 ?x956 ?x956 ?x956 ?x956 ?x956 ?x956 ?x941 r r r r r r)))
 (let (($x936 (not (= ?x939 0))))
 (let ((?x891 (+ ?x391 ?x531 ?x30 ?x146 ?x217 ?x178 ?x194 (* ?x897 ?x897 q) (* (- 2) (* ?x897 q)) ?x244 (* (- 4) (* ?x897 (+ ?x117 ?x143 q))) ?x968)))
 (let ((?x273 (+ ?x117 ?x143 q)))
 (let ((?x869 (* ?x897 ?x897 ?x897 ?x897 ?x897 ?x897 ?x273 ?x273 ?x273 ?x273 ?x273 ?x273 ?x273 ?x891 r r r r r r q q q q q)))
 (let (($x867 (not (= ?x869 0))))
 (let ((?x379 (+ (- 32) ?x391 ?x531 ?x30 (* (- 16) d) ?x146 ?x217 ?x178 ?x194 (* (+ (- 8) q) ?x897 ?x897) (* (- 2) (* (+ (- 8) q) ?x897)) ?x244 (* (- 4) (* ?x897 (+ (- 4) ?x117 ?x143 q (* (- 2) d)))) ?x968)))
 (let ((?x693 (* (- 2) d)))
 (let ((?x935 (+ (- 4) ?x117 ?x143 q ?x693)))
 (let ((?x692 (+ (- 8) q)))
 (let ((?x381 (* ?x692 ?x692 ?x692 ?x692 ?x692 ?x897 ?x897 ?x897 ?x897 ?x897 ?x897 ?x935 ?x935 ?x935 ?x935 ?x935 ?x935 ?x935 ?x379 r r r r r r)))
 (let (($x652 (not (= ?x381 0))))
 (let ((?x928 (* (- 8) d)))
 (let ((?x300 (+ (- 16) ?x391 ?x531 ?x30 ?x928 ?x146 ?x217 ?x178 ?x194 (* (+ (- 4) q) ?x897 ?x897) (* (- 2) (* (+ (- 4) q) ?x897)) ?x244 (* (- 4) (* ?x897 (+ (- 2) ?x117 ?x143 q (* (- 1) d)))) ?x968)))
 (let ((?x648 (* (- 1) d)))
 (let ((?x653 (+ (- 2) ?x117 ?x143 q ?x648)))
 (let ((?x625 (+ (- 4) q)))
 (let ((?x641 (* ?x625 ?x625 ?x625 ?x625 ?x625 ?x897 ?x897 ?x897 ?x897 ?x897 ?x897 ?x653 ?x653 ?x653 ?x653 ?x653 ?x653 ?x653 ?x300 r r r r r r)))
 (let (($x397 (not (= ?x641 0))))
 (let ((?x462 (* 4 (* x d))))
 (let ((?x175 (* 8 r)))
 (let ((?x271 (+ ?x175 ?x146 ?x462 ?x178 ?x194 (* d d q) (* (- 2) (* d q)) ?x244 (* (- 4) (* d r)) ?x968)))
 (let (($x272 (= ?x271 0)))
 (let (($x1073 (and $x272 (or $x397 $x652 $x867 $x936))))
 (let (($x399 (and $x272 (or $x867 $x936 $x652 $x397))))
 (rewrite (= $x399 $x1073)))))))))))))))))))))))))))))))))))))))))))))))
 ))
 (let (($x139 (exists ((q Int) (r Int) (d Int) (t Int) (x Int) )(! (let ((?x125 (- q 8)))
 (let ((?x62 (+ d 2)))
 (let ((?x119 (- (- (+ (- (* 2 r) x) q) (* 2 d)) 4)))
 (let ((?x77 (- 1)))
 (let ((?x53 (* 4 d00 r00)))
 (let ((?x49 (* 2 d00 q00)))
 (let ((?x41 (* d00 d00 q00)))
 (let ((?x39 (* 4 d00 x00)))
 (let ((?x123 (- (+ (- (* 8 ?x119) (* 8 r00)) (* 4 ?x62 r)) ?x39)))
 (let ((?x130 (+ (- (+ (- ?x123 ?x41) (* ?x62 ?x62 ?x125)) (* 2 ?x62 ?x125)) ?x49)))
 (let ((?x134 (* (+ (- ?x130 (* 4 ?x62 ?x119)) ?x53) ?x77 ?x62 ?x62 ?x62 ?x125 ?x119 r r ?x77 ?x62 ?x119 ?x119 ?x119 r r ?x77 ?x125 ?x125 ?x119 ?x119 ?x119 r ?x62 ?x62 ?x125 ?x125 r)))
 (let ((?x105 (- q 4)))
 (let ((?x99 (- (- (+ (- (* 2 r) x) q) d) 2)))
 (let ((?x103 (- (+ (- (* 8 ?x99) (* 8 r00)) (* 4 ?x62 r)) ?x39)))
 (let ((?x110 (+ (- (+ (- ?x103 ?x41) (* ?x62 ?x62 ?x105)) (* 2 ?x62 ?x105)) ?x49)))
 (let ((?x114 (* (+ (- ?x110 (* 4 ?x62 ?x99)) ?x53) ?x77 ?x62 ?x62 ?x62 ?x105 ?x99 r r ?x77 ?x62 ?x99 ?x99 ?x99 r r ?x77 ?x105 ?x105 ?x99 ?x99 ?x99 r ?x62 ?x62 ?x105 ?x105 r)))
 (let ((?x57 (* 2 r)))
 (let ((?x58 (- ?x57 x)))
 (let ((?x81 (+ ?x58 q)))
 (let ((?x85 (- (+ (- (* 8 ?x81) (* 8 r00)) (* 4 ?x62 r)) ?x39)))
 (let ((?x91 (+ (- (+ (- ?x85 ?x41) (* ?x62 ?x62 q)) (* 2 ?x62 q)) ?x49)))
 (let ((?x95 (* (+ (- ?x91 (* 4 ?x62 ?x81)) ?x53) ?x77 ?x62 ?x62 ?x62 q ?x81 r r ?x77 ?x62 ?x81 ?x81 ?x81 r r ?x77 q q ?x81 ?x81 ?x81 r ?x62 ?x62 q q r)))
 (let ((?x67 (+ q 4)))
 (let ((?x59 (+ ?x58 q d 2)))
 (let ((?x65 (- (+ (- (* 8 ?x59) (* 8 r00)) (* 4 ?x62 r)) ?x39)))
 (let ((?x72 (+ (- (+ (- ?x65 ?x41) (* ?x62 ?x62 ?x67)) (* 2 ?x62 ?x67)) ?x49)))
 (let ((?x78 (* (+ (- ?x72 (* 4 ?x62 ?x59)) ?x53) ?x77 ?x62 ?x62 ?x62 ?x67 ?x59 r r ?x77 ?x62 ?x59 ?x59 ?x59 r r ?x77 ?x67 ?x67 ?x59 ?x59 ?x59 r ?x62 ?x62 ?x67 ?x67 r)))
 (let (($x137 (or (not (= ?x78 0)) (not (= ?x95 0)) (not (= ?x114 0)) (not (= ?x134 0)))))
 (let ((?x44 (* d d q)))
 (let ((?x42 (- (+ (- (* 8 r) (* 8 r00)) (* 4 d x)) ?x39)))
 (let ((?x52 (- (+ (- (+ (- ?x42 ?x41) ?x44) (* 2 d q)) ?x49) (* 4 d r))))
 (and (= (+ ?x52 ?x53) 0) $x137)))))))))))))))))))))))))))))))) :qid k!32))
 ))
 (let (($x1122 (exists ((q Int) (r Int) (d Int) (t Int) (x Int) )(! (let ((?x968 (* 4 (* d00 r00))))
 (let ((?x212 (* (- 1) d)))
 (let ((?x143 (* (- 1) x)))
 (let ((?x57 (* 2 r)))
 (let ((?x1133 (+ (- 2) ?x57 ?x143 q ?x212)))
 (let ((?x249 (+ 2 d)))
 (let ((?x243 (* d00 q00)))
 (let ((?x244 (* 2 ?x243)))
 (let ((?x41 (* d00 d00 q00)))
 (let ((?x194 (* (- 1) ?x41)))
 (let ((?x164 (* d00 x00)))
 (let ((?x178 (* (- 4) ?x164)))
 (let ((?x577 (* 4 (* ?x249 r))))
 (let ((?x146 (* (- 8) r00)))
 (let ((?x436 (* (- 8) d)))
 (let ((?x348 (* 8 q)))
 (let ((?x531 (* (- 8) x)))
 (let ((?x431 (* 16 r)))
 (let ((?x374 (+ (- 16) ?x431 ?x531 ?x348 ?x436 ?x146 ?x577 ?x178 ?x194 (* (+ (- 4) q) ?x249 ?x249) (* (- 2) (* (+ (- 4) q) ?x249)) ?x244 (* (- 4) (* ?x249 ?x1133)) ?x968)))
 (let ((?x970 (+ (- 4) q)))
 (let ((?x656 (* ?x970 ?x970 ?x970 ?x970 ?x970 ?x249 ?x249 ?x249 ?x249 ?x249 ?x249 ?x1133 ?x1133 ?x1133 ?x1133 ?x1133 ?x1133 ?x1133 ?x374 r r r r r r)))
 (let ((?x1081 (+ (- 32) ?x431 ?x531 ?x348 (* (- 16) d) ?x146 ?x577 ?x178 ?x194 (* (+ (- 8) q) ?x249 ?x249) (* (- 2) (* (+ (- 8) q) ?x249)) ?x244 (* (- 4) (* ?x249 (+ (- 4) ?x57 ?x143 q (* (- 2) d)))) ?x968)))
 (let ((?x467 (* (- 2) d)))
 (let ((?x388 (+ (- 4) ?x57 ?x143 q ?x467)))
 (let ((?x1166 (+ (- 8) q)))
 (let ((?x924 (* ?x1166 ?x1166 ?x1166 ?x1166 ?x1166 ?x249 ?x249 ?x249 ?x249 ?x249 ?x249 ?x388 ?x388 ?x388 ?x388 ?x388 ?x388 ?x388 ?x1081 r r r r r r)))
 (let ((?x175 (* 8 d)))
 (let ((?x299 (+ 16 ?x431 ?x531 ?x348 ?x175 ?x146 ?x577 ?x178 ?x194 (* ?x249 ?x249 (+ 4 q)) (* (- 2) (* ?x249 (+ 4 q))) ?x244 (* (- 4) (* ?x249 (+ 2 ?x57 ?x143 q d))) ?x968)))
 (let ((?x345 (+ 2 ?x57 ?x143 q d)))
 (let ((?x333 (+ 4 q)))
 (let ((?x354 (* ?x249 ?x249 ?x249 ?x249 ?x249 ?x249 ?x333 ?x333 ?x333 ?x333 ?x333 ?x345 ?x345 ?x345 ?x345 ?x345 ?x345 ?x345 ?x299 r r r r r r)))
 (let ((?x1082 (+ ?x431 ?x531 ?x348 ?x146 ?x577 ?x178 ?x194 (* ?x249 ?x249 q) (* (- 2) (* ?x249 q)) ?x244 (* (- 4) (* ?x249 (+ ?x57 ?x143 q))) ?x968)))
 (let ((?x478 (+ ?x57 ?x143 q)))
 (let ((?x220 (* ?x249 ?x249 ?x249 ?x249 ?x249 ?x249 ?x478 ?x478 ?x478 ?x478 ?x478 ?x478 ?x478 ?x1082 r r r r r r q q q q q)))
 (let (($x250 (or (not (= ?x220 0)) (not (= ?x354 0)) (not (= ?x924 0)) (not (= ?x656 0)))))
 (let ((?x44 (* d d q)))
 (let ((?x30 (* 8 r)))
 (let ((?x1141 (+ ?x30 ?x146 (* 4 (* x d)) ?x178 ?x194 ?x44 (* (- 2) (* d q)) ?x244 (* (- 4) (* d r)) ?x968)))
 (and (= ?x1141 0) $x250))))))))))))))))))))))))))))))))))))))) :qid k!32))
 ))
 (let ((?x1121 (lambda ((q Int) (r Int) (d Int) (t Int) (x Int) )(let ((?x968 (* 4 (* d00 r00))))
 (let ((?x212 (* (- 1) d)))
 (let ((?x143 (* (- 1) x)))
 (let ((?x57 (* 2 r)))
 (let ((?x1133 (+ (- 2) ?x57 ?x143 q ?x212)))
 (let ((?x249 (+ 2 d)))
 (let ((?x243 (* d00 q00)))
 (let ((?x244 (* 2 ?x243)))
 (let ((?x41 (* d00 d00 q00)))
 (let ((?x194 (* (- 1) ?x41)))
 (let ((?x164 (* d00 x00)))
 (let ((?x178 (* (- 4) ?x164)))
 (let ((?x577 (* 4 (* ?x249 r))))
 (let ((?x146 (* (- 8) r00)))
 (let ((?x436 (* (- 8) d)))
 (let ((?x348 (* 8 q)))
 (let ((?x531 (* (- 8) x)))
 (let ((?x431 (* 16 r)))
 (let ((?x374 (+ (- 16) ?x431 ?x531 ?x348 ?x436 ?x146 ?x577 ?x178 ?x194 (* (+ (- 4) q) ?x249 ?x249) (* (- 2) (* (+ (- 4) q) ?x249)) ?x244 (* (- 4) (* ?x249 ?x1133)) ?x968)))
 (let ((?x970 (+ (- 4) q)))
 (let ((?x656 (* ?x970 ?x970 ?x970 ?x970 ?x970 ?x249 ?x249 ?x249 ?x249 ?x249 ?x249 ?x1133 ?x1133 ?x1133 ?x1133 ?x1133 ?x1133 ?x1133 ?x374 r r r r r r)))
 (let ((?x1081 (+ (- 32) ?x431 ?x531 ?x348 (* (- 16) d) ?x146 ?x577 ?x178 ?x194 (* (+ (- 8) q) ?x249 ?x249) (* (- 2) (* (+ (- 8) q) ?x249)) ?x244 (* (- 4) (* ?x249 (+ (- 4) ?x57 ?x143 q (* (- 2) d)))) ?x968)))
 (let ((?x467 (* (- 2) d)))
 (let ((?x388 (+ (- 4) ?x57 ?x143 q ?x467)))
 (let ((?x1166 (+ (- 8) q)))
 (let ((?x924 (* ?x1166 ?x1166 ?x1166 ?x1166 ?x1166 ?x249 ?x249 ?x249 ?x249 ?x249 ?x249 ?x388 ?x388 ?x388 ?x388 ?x388 ?x388 ?x388 ?x1081 r r r r r r)))
 (let ((?x175 (* 8 d)))
 (let ((?x299 (+ 16 ?x431 ?x531 ?x348 ?x175 ?x146 ?x577 ?x178 ?x194 (* ?x249 ?x249 (+ 4 q)) (* (- 2) (* ?x249 (+ 4 q))) ?x244 (* (- 4) (* ?x249 (+ 2 ?x57 ?x143 q d))) ?x968)))
 (let ((?x345 (+ 2 ?x57 ?x143 q d)))
 (let ((?x333 (+ 4 q)))
 (let ((?x354 (* ?x249 ?x249 ?x249 ?x249 ?x249 ?x249 ?x333 ?x333 ?x333 ?x333 ?x333 ?x345 ?x345 ?x345 ?x345 ?x345 ?x345 ?x345 ?x299 r r r r r r)))
 (let ((?x1082 (+ ?x431 ?x531 ?x348 ?x146 ?x577 ?x178 ?x194 (* ?x249 ?x249 q) (* (- 2) (* ?x249 q)) ?x244 (* (- 4) (* ?x249 (+ ?x57 ?x143 q))) ?x968)))
 (let ((?x478 (+ ?x57 ?x143 q)))
 (let ((?x220 (* ?x249 ?x249 ?x249 ?x249 ?x249 ?x249 ?x478 ?x478 ?x478 ?x478 ?x478 ?x478 ?x478 ?x1082 r r r r r r q q q q q)))
 (let (($x250 (or (not (= ?x220 0)) (not (= ?x354 0)) (not (= ?x924 0)) (not (= ?x656 0)))))
 (let ((?x44 (* d d q)))
 (let ((?x30 (* 8 r)))
 (let ((?x1141 (+ ?x30 ?x146 (* 4 (* x d)) ?x178 ?x194 ?x44 (* (- 2) (* d q)) ?x244 (* (- 4) (* d r)) ?x968)))
 (let (($x172 (and (= ?x1141 0) $x250)))
 (let ((?x125 (- q 8)))
 (let ((?x62 (+ d 2)))
 (let ((?x119 (- (- (+ (- ?x57 x) q) (* 2 d)) 4)))
 (let ((?x77 (- 1)))
 (let ((?x53 (* 4 d00 r00)))
 (let ((?x49 (* 2 d00 q00)))
 (let ((?x39 (* 4 d00 x00)))
 (let ((?x123 (- (+ (- (* 8 ?x119) (* 8 r00)) (* 4 ?x62 r)) ?x39)))
 (let ((?x130 (+ (- (+ (- ?x123 ?x41) (* ?x62 ?x62 ?x125)) (* 2 ?x62 ?x125)) ?x49)))
 (let ((?x134 (* (+ (- ?x130 (* 4 ?x62 ?x119)) ?x53) ?x77 ?x62 ?x62 ?x62 ?x125 ?x119 r r ?x77 ?x62 ?x119 ?x119 ?x119 r r ?x77 ?x125 ?x125 ?x119 ?x119 ?x119 r ?x62 ?x62 ?x125 ?x125 r)))
 (let ((?x105 (- q 4)))
 (let ((?x99 (- (- (+ (- ?x57 x) q) d) 2)))
 (let ((?x103 (- (+ (- (* 8 ?x99) (* 8 r00)) (* 4 ?x62 r)) ?x39)))
 (let ((?x110 (+ (- (+ (- ?x103 ?x41) (* ?x62 ?x62 ?x105)) (* 2 ?x62 ?x105)) ?x49)))
 (let ((?x114 (* (+ (- ?x110 (* 4 ?x62 ?x99)) ?x53) ?x77 ?x62 ?x62 ?x62 ?x105 ?x99 r r ?x77 ?x62 ?x99 ?x99 ?x99 r r ?x77 ?x105 ?x105 ?x99 ?x99 ?x99 r ?x62 ?x62 ?x105 ?x105 r)))
 (let ((?x58 (- ?x57 x)))
 (let ((?x81 (+ ?x58 q)))
 (let ((?x85 (- (+ (- (* 8 ?x81) (* 8 r00)) (* 4 ?x62 r)) ?x39)))
 (let ((?x91 (+ (- (+ (- ?x85 ?x41) (* ?x62 ?x62 q)) (* 2 ?x62 q)) ?x49)))
 (let ((?x95 (* (+ (- ?x91 (* 4 ?x62 ?x81)) ?x53) ?x77 ?x62 ?x62 ?x62 q ?x81 r r ?x77 ?x62 ?x81 ?x81 ?x81 r r ?x77 q q ?x81 ?x81 ?x81 r ?x62 ?x62 q q r)))
 (let ((?x67 (+ q 4)))
 (let ((?x59 (+ ?x58 q d 2)))
 (let ((?x65 (- (+ (- (* 8 ?x59) (* 8 r00)) (* 4 ?x62 r)) ?x39)))
 (let ((?x72 (+ (- (+ (- ?x65 ?x41) (* ?x62 ?x62 ?x67)) (* 2 ?x62 ?x67)) ?x49)))
 (let ((?x78 (* (+ (- ?x72 (* 4 ?x62 ?x59)) ?x53) ?x77 ?x62 ?x62 ?x62 ?x67 ?x59 r r ?x77 ?x62 ?x59 ?x59 ?x59 r r ?x77 ?x67 ?x67 ?x59 ?x59 ?x59 r ?x62 ?x62 ?x67 ?x67 r)))
 (let (($x137 (or (not (= ?x78 0)) (not (= ?x95 0)) (not (= ?x114 0)) (not (= ?x134 0)))))
 (let ((?x45 (+ (- (- (+ (- ?x30 (* 8 r00)) (* 4 d x)) ?x39) ?x41) ?x44)))
 (let ((?x54 (+ (- (+ (- ?x45 (* 2 d q)) ?x49) (* 4 d r)) ?x53)))
 (let (($x138 (and (= ?x54 0) $x137)))
 (rewrite (= $x138 $x172)))))))))))))))))))))))))))))))))))))))))))))))))))))))))))))))))))))))
 ))
 (let ((@x838 (trans (quant-intro (proof-bind ?x1121) (= $x139 $x1122)) (elim-unused (= $x1122 $x402)) (= $x139 $x402))))
 (let ((@x27 (asserted $x139)))
 (let ((@x479 (mp (mp @x27 @x838 $x402) (quant-intro (proof-bind ?x1074) (= $x402 $x569)) $x569)))
 (let ((@x852 (mp (mp @x479 (rewrite (= $x569 $x569)) $x569) (quant-intro (proof-bind ?x1331) (= $x569 $x642)) $x642)))
 (let ((@x181 (mp~ (mp @x852 (quant-intro (proof-bind ?x944) (= $x642 $x147)) $x147) (sk (~ $x147 $x1297)) $x1297)))
 (let ((@x550 (mp @x181 (rewrite (= $x1297 $x746)) $x746)))
 (let ((@x755 (and-elim @x550 $x1099)))
 (let ((@x308 (unit-resolution ((_ th-lemma arith triangle-eq) (or (not $x1099) $x1273)) @x755 $x1273)))
 (let (($x222 (<= ?x1310 0)))
 (let ((@x1039 (unit-resolution ((_ th-lemma arith triangle-eq) (or (not $x1099) $x222)) @x755 $x222)))
 (let (($x1315 (not (<= ?x1109 0))))
 (let (($x590 (<= ?x563 0)))
 (let (($x1000 (>= ?x563 0)))
 (let ((@x1322 (unit-resolution ((_ th-lemma arith triangle-eq) (or $x542 (not $x590) (not $x1000))) (lemma ((_ th-lemma arith farkas 1 1 1) (hypothesis (not $x1000)) @x1039 @x308 false) $x1000) (lemma ((_ th-lemma arith farkas 1 1 1) (hypothesis (not $x590)) @x1039 @x308 false) $x590) $x542)))
 (let (($x227 (>= ?x547 0)))
 (let (($x999 (<= ?x547 0)))
 (let ((@x565 (unit-resolution ((_ th-lemma arith triangle-eq) (or $x604 (not $x999) (not $x227))) (lemma ((_ th-lemma arith farkas 1 1 1) (hypothesis (not $x999)) @x1039 @x308 false) $x999) (lemma ((_ th-lemma arith farkas 1 1 1) (hypothesis (not $x227)) @x1039 @x308 false) $x227) $x604)))
 (let (($x1003 (>= ?x559 0)))
 (let (($x323 (<= ?x559 0)))
 (let ((@x1324 (unit-resolution ((_ th-lemma arith triangle-eq) (or $x557 (not $x323) (not $x1003))) (lemma ((_ th-lemma arith farkas 1 1 1) (hypothesis (not $x323)) @x1039 @x308 false) $x323) (lemma ((_ th-lemma arith farkas 1 1 1) (hypothesis (not $x1003)) @x1039 @x308 false) $x1003) $x557)))
 (let ((@x1110 (unit-resolution (unit-resolution (and-elim @x550 $x506) @x1324 @x565 (or $x549 $x1114)) @x1322 $x1114)))
 (let (($x174 (>= ?x1109 0)))
 (let ((@x1098 (unit-resolution ((_ th-lemma arith triangle-eq) (or $x1096 $x1315 (not $x174))) (lemma ((_ th-lemma arith farkas 1 1 1) (hypothesis (not $x174)) @x1039 @x308 false) $x174) @x1110 $x1315)))
 ((_ th-lemma arith farkas 1 1 1) @x1098 @x1039 @x308 false)))))))))))))))))))))))))))))))))))))))))))))))))))))))))))))))))))))))))))))))))))))))))

(:added-eqs                 12
 :arith-assert-diseq        7
 :arith-assert-lower        38
 :arith-assert-upper        35
 :arith-conflicts           8
 :arith-eq-adapter          13
 :arith-fixed-eqs           12
 :arith-grobner             8
 :arith-max-min             432
 :arith-nonlinear-horner    58
 :arith-num-rows            10
 :arith-pivots              1
 :arith-pseudo-nonlinear    32
 :arith-row-summations      1
 :arith-tableau-max-columns 37
 :arith-tableau-max-rows    10
 :conflicts                 8
 :decisions                 24
 :del-clause                39
 :final-checks              8
 :max-memory                3.79
 :memory                    3.31
 :mk-bool-var               45
 :mk-clause                 52
 :num-allocs                1736914
 :num-checks                1
 :propagations              36
 :rlimit-count              8304
 :time                      0.02
 :total-time                0.03)
